language ESSENCE' 1.0
letting lastdx=107
letting cage be [
[3,10,3,0,0, 0,0, 0,0, 0,0],
[28,6,10,6,11,7,11,0,0, 0,0],
[5,7,14,0,0, 0,0, 0,0, 0,0],
[36,13,15,13,16,14,16,14,15,0,0],
[23,6,5,6,4,7,4,0,0, 0,0],
[38,8,6,7,6,7,7,7,8,0,0],
[10,4,8,0,0, 0,0, 0,0, 0,0],
[10,13,12,0,0, 0,0, 0,0, 0,0],
[1,4,13,0,0, 0,0, 0,0, 0,0],
[45,8,4,8,5,7,5,9,5,9,4],
[5,12,6,0,0, 0,0, 0,0, 0,0],
[39,12,9,11,9,11,10,12,10,0,0],
[63,2,8,3,8,3,7,2,7,2,6],
[35,4,16,4,15,4,14,0,0, 0,0],
[36,15,9,14,9,13,9,13,8,14,8],
[2,5,7,0,0, 0,0, 0,0, 0,0],
[2,1,12,0,0, 0,0, 0,0, 0,0],
[10,16,16,0,0, 0,0, 0,0, 0,0],
[38,14,10,15,10,15,11,15,12,0,0],
[15,1,13,0,0, 0,0, 0,0, 0,0],
[30,4,7,4,6,3,6,3,5,3,4],
[11,6,9,5,9,0,0, 0,0, 0,0],
[14,2,14,0,0, 0,0, 0,0, 0,0],
[18,1,3,2,3,0,0, 0,0, 0,0],
[1,2,12,0,0, 0,0, 0,0, 0,0],
[9,6,3,0,0, 0,0, 0,0, 0,0],
[10,6,14,0,0, 0,0, 0,0, 0,0],
[8,14,11,0,0, 0,0, 0,0, 0,0],
[14,16,2,16,1,0,0, 0,0, 0,0],
[14,10,10,10,11,0,0, 0,0, 0,0],
[12,3,13,2,13,0,0, 0,0, 0,0],
[46,12,3,12,4,12,5,11,5,0,0],
[4,14,3,0,0, 0,0, 0,0, 0,0],
[26,8,12,9,12,9,11,9,10,0,0],
[34,11,13,11,12,10,12,0,0, 0,0],
[16,2,9,0,0, 0,0, 0,0, 0,0],
[36,13,1,14,1,15,1,0,0, 0,0],
[48,14,6,15,6,15,7,14,7,13,7],
[6,6,6,0,0, 0,0, 0,0, 0,0],
[27,4,12,4,11,4,10,5,10,0,0],
[2,2,5,0,0, 0,0, 0,0, 0,0],
[16,13,4,0,0, 0,0, 0,0, 0,0],
[36,14,12,14,13,15,13,0,0, 0,0],
[36,1,16,1,15,1,14,2,15,2,16],
[18,13,5,13,6,0,0, 0,0, 0,0],
[17,13,10,13,11,0,0, 0,0, 0,0],
[14,16,13,0,0, 0,0, 0,0, 0,0],
[27,11,6,10,6,10,7,9,7,9,6],
[17,6,2,6,1,5,1,0,0, 0,0],
[21,6,8,5,8,6,7,0,0, 0,0],
[48,7,16,7,15,6,15,6,16,5,16],
[12,7,13,8,13,0,0, 0,0, 0,0],
[11,6,13,0,0, 0,0, 0,0, 0,0],
[40,7,12,6,12,5,12,5,11,0,0],
[3,4,1,3,1,0,0, 0,0, 0,0],
[26,7,3,8,3,9,3,0,0, 0,0],
[11,1,6,0,0, 0,0, 0,0, 0,0],
[25,8,16,9,16,0,0, 0,0, 0,0],
[12,11,2,0,0, 0,0, 0,0, 0,0],
[35,5,6,5,5,4,5,0,0, 0,0],
[10,12,13,12,12,0,0, 0,0, 0,0],
[9,2,11,0,0, 0,0, 0,0, 0,0],
[36,15,3,15,2,16,3,15,4,0,0],
[23,9,1,8,1,7,1,0,0, 0,0],
[7,1,11,0,0, 0,0, 0,0, 0,0],
[10,15,14,14,14,0,0, 0,0, 0,0],
[6,16,14,0,0, 0,0, 0,0, 0,0],
[15,11,1,0,0, 0,0, 0,0, 0,0],
[32,9,8,9,9,10,9,0,0, 0,0],
[37,12,7,12,8,11,8,10,8,11,7],
[6,16,10,16,9,0,0, 0,0, 0,0],
[21,16,11,16,12,0,0, 0,0, 0,0],
[4,12,14,0,0, 0,0, 0,0, 0,0],
[16,1,5,1,4,2,4,0,0, 0,0],
[16,1,1,0,0, 0,0, 0,0, 0,0],
[5,1,2,0,0, 0,0, 0,0, 0,0],
[27,1,7,1,8,1,9,0,0, 0,0],
[21,1,10,2,10,0,0, 0,0, 0,0],
[8,2,1,0,0, 0,0, 0,0, 0,0],
[31,2,2,3,2,3,3,0,0, 0,0],
[8,3,9,4,9,0,0, 0,0, 0,0],
[36,3,10,3,11,3,12,0,0, 0,0],
[23,3,14,3,15,3,16,0,0, 0,0],
[21,4,2,5,2,0,0, 0,0, 0,0],
[11,4,3,0,0, 0,0, 0,0, 0,0],
[15,4,4,0,0, 0,0, 0,0, 0,0],
[25,5,3,5,4,0,0, 0,0, 0,0],
[6,5,13,0,0, 0,0, 0,0, 0,0],
[19,5,14,5,15,0,0, 0,0, 0,0],
[14,7,2,0,0, 0,0, 0,0, 0,0],
[26,7,9,8,9,0,0, 0,0, 0,0],
[23,7,10,8,10,8,11,0,0, 0,0],
[3,8,2,0,0, 0,0, 0,0, 0,0],
[16,8,7,8,8,0,0, 0,0, 0,0],
[2,8,14,0,0, 0,0, 0,0, 0,0],
[21,8,15,9,15,10,15,0,0, 0,0],
[4,9,2,0,0, 0,0, 0,0, 0,0],
[13,9,13,0,0, 0,0, 0,0, 0,0],
[44,9,14,10,14,10,13,11,14,0,0],
[9,10,1,10,2,0,0, 0,0, 0,0],
[41,10,4,10,5,11,4,11,3,0,0],
[14,10,16,0,0, 0,0, 0,0, 0,0],
[17,11,11,12,11,0,0, 0,0, 0,0],
[21,11,15,12,15,12,16,11,16,0,0],
[3,13,13,13,14,0,0, 0,0, 0,0],
[12,14,4,14,5,0,0, 0,0, 0,0],
[36,15,8,16,8,16,7,16,6,0,0],
[36,15,15,15,16,16,15,0,0, 0,0]
]
